(set-info :status unsat)
(declare-const symbol_15 (_ BitVec 32))
(declare-const symbol_0 (_ BitVec 32))
(declare-const symbol_11 (_ BitVec 32))
(declare-const symbol_3 (_ BitVec 32))
(declare-const symbol_6 (_ BitVec 32))
(declare-const symbol_1 (_ BitVec 32))
(declare-const symbol_13 (_ BitVec 32))
(declare-const symbol_8 (_ BitVec 32))
(assert (= symbol_15 (_ bv3 32)))
(assert (not (not (= symbol_15 (_ bv5 32)))))
(assert (not (not (= symbol_13 (_ bv5 32)))))
(assert (not (not (= symbol_11 (_ bv5 32)))))
(assert (not (not (= symbol_8 (_ bv5 32)))))
(assert (not (not (= symbol_6 (_ bv5 32)))))
(assert (not (not (= symbol_3 (_ bv5 32)))))
(assert (not (not (= symbol_1 (_ bv5 32)))))
(assert (not (not (= symbol_0 (_ bv5 32)))))
(check-sat)